(declare-const a Real)
(declare-const b Real)
(declare-const c Real)
(assert (= (* a b c) 1))
(assert (> a 0))
(assert (> b 0))
(assert (> c 0))
(assert (not (<= (+ (* (/ -2750 27) (pow b 4)) (* (/ -1646 27) (pow a 4)) (* -96 (pow a (/ 4 3)) (pow b (/ 8 3))) (* 96 (pow a (/ 5 3)) (pow b (/ 7 3))) (* (/ 212 9) (pow a 2) (pow b 2)) (* (/ 344 27) b (pow a 3)) (* (/ 3416 27) a (pow b 3))) 0)))
(check-sat)
(get-model)
(exit)